
Gurobi 13.0.2 (win64) logging started Fri Jul 24 08:40:45 2026

Set parameter LogFile to value "E:\codes\ExactEBRP\results\gf_c0_mechanism_transfer_c5_round30\runs\stage2__high_imbalance_seed4201__c5_candidate__300s\external\native_logs\L2.0.0.0.1.0.1_partial_target_mip.gurobi.log"
Gurobi Optimizer version 13.0.2 build v13.0.2rc1 (win64 - Windows 10.0 (19045.2))

CPU model: 12th Gen Intel(R) Core(TM) i7-12700KF, instruction set [SSE2|AVX|AVX2]
Thread count: 12 physical cores, 20 logical processors, using up to 1 threads

Non-default parameters:
TimeLimit  260.4991235
MIPGap  0
MIPGapAbs  0
LogToConsole  0
Threads  1

Optimize a model with 11902 rows, 3374 columns and 67341 nonzeros (Min)
Model fingerprint: 0xe157ad20
Model has 21 linear objective coefficients
Variable types: 1684 continuous, 1690 integer (1490 binary)
Coefficient statistics:
  Matrix range     [1e-02, 2e+04]
  Objective range  [1e-02, 1e+00]
  Bounds range     [5e-01, 2e+03]
  RHS range        [5e-01, 5e+04]

Presolve removed 2144 rows and 175 columns
Presolve time: 0.26s
Presolved: 9758 rows, 3199 columns, 79763 nonzeros
Variable types: 1592 continuous, 1607 integer (1428 binary)

Root relaxation: objective 2.691917e+00, 3628 iterations, 0.19 seconds (0.52 work units)

    Nodes    |    Current Node    |     Objective Bounds      |     Work
 Expl Unexpl |  Obj  Depth IntInf | Incumbent    BestBd   Gap | It/Node Time

     0     0    2.69192    0  232          -    2.69192      -     -    0s

Explored 1 nodes (3628 simplex iterations) in 0.49 seconds (1.02 work units)
Thread count was 1 (of 20 available processors)

Solution count 0

Solve interrupted
Best objective -, best bound 2.691916724605e+00, gap -

User-callback calls 892, time in user-callback 0.00 sec
